NAME : 0
COMMENT : CVRP Instance
TYPE : CVRP
DIMENSION : 1001
EDGE_WEIGHT_TYPE : EUC_2D
CAPACITY : 131
NODE_COORD_SECTION
1	2.0	857.0
2	407.0	102.0
3	915.0	965.0
4	797.0	45.0
5	997.0	241.0
6	650.0	683.0
7	748.0	248.0
8	99.0	174.0
9	2.0	545.0
10	277.0	689.0
11	568.0	771.0
12	76.0	105.0
13	117.0	973.0
14	171.0	971.0
15	327.0	183.0
16	277.0	697.0
17	269.0	246.0
18	670.0	18.0
19	51.0	901.0
20	951.0	696.0
21	710.0	102.0
22	61.0	465.0
23	348.0	606.0
24	551.0	243.0
25	524.0	793.0
26	89.0	582.0
27	900.0	748.0
28	235.0	368.0
29	122.0	587.0
30	449.0	781.0
31	970.0	38.0
32	362.0	490.0
33	742.0	267.0
34	289.0	115.0
35	898.0	957.0
36	996.0	922.0
37	951.0	633.0
38	713.0	779.0
39	603.0	247.0
40	402.0	363.0
41	143.0	0.0
42	274.0	608.0
43	81.0	422.0
44	550.0	408.0
45	43.0	699.0
46	482.0	575.0
47	909.0	254.0
48	613.0	37.0
49	202.0	575.0
50	297.0	297.0
51	736.0	288.0
52	464.0	127.0
53	499.0	491.0
54	635.0	531.0
55	796.0	328.0
56	184.0	941.0
57	641.0	824.0
58	863.0	673.0
59	396.0	950.0
60	555.0	631.0
61	664.0	966.0
62	301.0	260.0
63	425.0	990.0
64	559.0	746.0
65	431.0	827.0
66	724.0	472.0
67	847.0	51.0
68	888.0	721.0
69	136.0	331.0
70	859.0	627.0
71	206.0	5.0
72	429.0	381.0
73	798.0	918.0
74	886.0	684.0
75	123.0	488.0
76	779.0	445.0
77	764.0	43.0
78	938.0	743.0
79	800.0	398.0
80	734.0	20.0
81	211.0	678.0
82	601.0	545.0
83	512.0	403.0
84	796.0	106.0
85	644.0	810.0
86	416.0	973.0
87	115.0	435.0
88	667.0	91.0
89	395.0	941.0
90	374.0	546.0
91	546.0	191.0
92	754.0	255.0
93	124.0	588.0
94	423.0	929.0
95	314.0	637.0
96	668.0	268.0
97	321.0	786.0
98	960.0	423.0
99	11.0	499.0
100	721.0	692.0
101	803.0	584.0
102	337.0	475.0
103	806.0	773.0
104	429.0	478.0
105	214.0	547.0
106	361.0	166.0
107	944.0	218.0
108	12.0	468.0
109	527.0	255.0
110	789.0	724.0
111	250.0	862.0
112	892.0	896.0
113	545.0	806.0
114	832.0	12.0
115	628.0	495.0
116	194.0	884.0
117	395.0	309.0
118	655.0	39.0
119	558.0	175.0
120	247.0	947.0
121	36.0	394.0
122	877.0	451.0
123	599.0	724.0
124	83.0	489.0
125	754.0	703.0
126	65.0	35.0
127	889.0	230.0
128	938.0	307.0
129	662.0	394.0
130	248.0	220.0
131	642.0	549.0
132	747.0	86.0
133	201.0	643.0
134	400.0	574.0
135	653.0	798.0
136	653.0	904.0
137	643.0	138.0
138	951.0	307.0
139	793.0	865.0
140	500.0	726.0
141	585.0	586.0
142	285.0	769.0
143	511.0	898.0
144	336.0	912.0
145	454.0	207.0
146	239.0	951.0
147	335.0	815.0
148	911.0	708.0
149	2.0	239.0
150	602.0	984.0
151	372.0	799.0
152	177.0	756.0
153	816.0	435.0
154	617.0	639.0
155	806.0	796.0
156	793.0	584.0
157	803.0	561.0
158	479.0	831.0
159	397.0	20.0
160	618.0	113.0
161	702.0	902.0
162	838.0	111.0
163	989.0	451.0
164	215.0	154.0
165	581.0	757.0
166	294.0	174.0
167	997.0	332.0
168	350.0	909.0
169	335.0	941.0
170	906.0	354.0
171	920.0	675.0
172	493.0	469.0
173	187.0	284.0
174	678.0	127.0
175	831.0	755.0
176	316.0	319.0
177	188.0	134.0
178	73.0	608.0
179	884.0	613.0
180	193.0	831.0
181	717.0	851.0
182	508.0	52.0
183	809.0	556.0
184	705.0	769.0
185	983.0	312.0
186	847.0	359.0
187	415.0	658.0
188	132.0	789.0
189	520.0	413.0
190	913.0	564.0
191	90.0	256.0
192	960.0	936.0
193	693.0	559.0
194	980.0	347.0
195	300.0	456.0
196	376.0	144.0
197	192.0	177.0
198	272.0	525.0
199	88.0	626.0
200	772.0	743.0
201	540.0	206.0
202	474.0	559.0
203	575.0	901.0
204	241.0	949.0
205	583.0	602.0
206	215.0	48.0
207	460.0	683.0
208	81.0	368.0
209	998.0	835.0
210	585.0	234.0
211	522.0	137.0
212	294.0	501.0
213	788.0	392.0
214	621.0	498.0
215	116.0	698.0
216	81.0	236.0
217	788.0	277.0
218	817.0	861.0
219	678.0	560.0
220	351.0	354.0
221	156.0	507.0
222	617.0	486.0
223	218.0	189.0
224	213.0	23.0
225	884.0	616.0
226	923.0	177.0
227	829.0	814.0
228	479.0	307.0
229	285.0	153.0
230	584.0	878.0
231	176.0	928.0
232	166.0	656.0
233	507.0	183.0
234	907.0	171.0
235	7.0	792.0
236	995.0	412.0
237	22.0	787.0
238	149.0	784.0
239	649.0	933.0
240	885.0	309.0
241	131.0	560.0
242	22.0	81.0
243	502.0	640.0
244	462.0	970.0
245	465.0	114.0
246	192.0	569.0
247	547.0	473.0
248	557.0	408.0
249	480.0	579.0
250	775.0	395.0
251	845.0	753.0
252	701.0	529.0
253	962.0	95.0
254	842.0	847.0
255	31.0	68.0
256	627.0	629.0
257	524.0	322.0
258	918.0	853.0
259	823.0	774.0
260	775.0	894.0
261	109.0	935.0
262	478.0	480.0
263	511.0	488.0
264	785.0	899.0
265	487.0	121.0
266	453.0	440.0
267	470.0	598.0
268	1.0	111.0
269	756.0	89.0
270	728.0	583.0
271	647.0	753.0
272	973.0	391.0
273	842.0	559.0
274	637.0	397.0
275	72.0	370.0
276	948.0	485.0
277	999.0	268.0
278	471.0	517.0
279	350.0	131.0
280	381.0	534.0
281	310.0	467.0
282	973.0	212.0
283	164.0	485.0
284	429.0	565.0
285	186.0	426.0
286	838.0	897.0
287	779.0	143.0
288	452.0	1.0
289	866.0	928.0
290	214.0	623.0
291	532.0	586.0
292	513.0	152.0
293	915.0	772.0
294	204.0	585.0
295	343.0	558.0
296	877.0	720.0
297	730.0	272.0
298	364.0	617.0
299	210.0	569.0
300	514.0	296.0
301	33.0	761.0
302	202.0	695.0
303	706.0	395.0
304	597.0	866.0
305	376.0	83.0
306	679.0	434.0
307	483.0	578.0
308	0.0	299.0
309	639.0	101.0
310	709.0	590.0
311	774.0	925.0
312	804.0	864.0
313	528.0	192.0
314	660.0	561.0
315	888.0	7.0
316	788.0	712.0
317	79.0	750.0
318	854.0	884.0
319	710.0	665.0
320	939.0	390.0
321	156.0	683.0
322	62.0	737.0
323	207.0	501.0
324	944.0	334.0
325	952.0	915.0
326	14.0	440.0
327	923.0	386.0
328	693.0	370.0
329	485.0	885.0
330	890.0	951.0
331	478.0	956.0
332	782.0	216.0
333	104.0	50.0
334	822.0	370.0
335	73.0	108.0
336	7.0	981.0
337	987.0	382.0
338	397.0	439.0
339	986.0	513.0
340	871.0	661.0
341	636.0	866.0
342	154.0	39.0
343	70.0	100.0
344	75.0	647.0
345	383.0	5.0
346	86.0	692.0
347	263.0	570.0
348	26.0	218.0
349	892.0	317.0
350	139.0	60.0
351	76.0	883.0
352	336.0	44.0
353	648.0	837.0
354	713.0	447.0
355	98.0	769.0
356	316.0	688.0
357	470.0	613.0
358	157.0	295.0
359	499.0	223.0
360	482.0	100.0
361	3.0	209.0
362	280.0	692.0
363	525.0	6.0
364	54.0	122.0
365	220.0	208.0
366	838.0	860.0
367	0.0	143.0
368	455.0	989.0
369	923.0	705.0
370	41.0	665.0
371	829.0	426.0
372	809.0	821.0
373	238.0	811.0
374	57.0	114.0
375	490.0	911.0
376	445.0	135.0
377	126.0	154.0
378	502.0	856.0
379	543.0	422.0
380	395.0	335.0
381	873.0	378.0
382	947.0	675.0
383	127.0	46.0
384	895.0	216.0
385	590.0	641.0
386	415.0	0.0
387	456.0	639.0
388	881.0	466.0
389	721.0	116.0
390	884.0	403.0
391	323.0	319.0
392	495.0	158.0
393	534.0	496.0
394	784.0	89.0
395	600.0	973.0
396	582.0	263.0
397	630.0	484.0
398	498.0	412.0
399	737.0	749.0
400	187.0	137.0
401	433.0	302.0
402	864.0	360.0
403	262.0	566.0
404	63.0	28.0
405	698.0	186.0
406	669.0	65.0
407	280.0	605.0
408	163.0	577.0
409	7.0	891.0
410	156.0	301.0
411	977.0	815.0
412	144.0	312.0
413	272.0	181.0
414	524.0	978.0
415	112.0	407.0
416	865.0	155.0
417	232.0	344.0
418	418.0	650.0
419	529.0	362.0
420	889.0	916.0
421	952.0	677.0
422	443.0	10.0
423	644.0	925.0
424	982.0	797.0
425	328.0	995.0
426	652.0	395.0
427	954.0	103.0
428	614.0	890.0
429	583.0	127.0
430	54.0	278.0
431	534.0	176.0
432	457.0	678.0
433	769.0	423.0
434	111.0	776.0
435	537.0	183.0
436	887.0	534.0
437	263.0	242.0
438	238.0	143.0
439	693.0	433.0
440	481.0	223.0
441	276.0	463.0
442	301.0	278.0
443	813.0	997.0
444	522.0	400.0
445	342.0	979.0
446	121.0	219.0
447	282.0	213.0
448	495.0	110.0
449	824.0	196.0
450	974.0	643.0
451	567.0	187.0
452	588.0	289.0
453	415.0	542.0
454	84.0	369.0
455	711.0	288.0
456	192.0	263.0
457	634.0	955.0
458	134.0	858.0
459	836.0	650.0
460	401.0	251.0
461	330.0	390.0
462	757.0	708.0
463	640.0	675.0
464	512.0	860.0
465	179.0	319.0
466	36.0	160.0
467	902.0	529.0
468	526.0	587.0
469	186.0	229.0
470	15.0	596.0
471	979.0	645.0
472	647.0	323.0
473	182.0	123.0
474	184.0	38.0
475	302.0	219.0
476	781.0	849.0
477	330.0	18.0
478	991.0	649.0
479	887.0	717.0
480	37.0	331.0
481	616.0	448.0
482	331.0	231.0
483	822.0	365.0
484	230.0	835.0
485	359.0	963.0
486	60.0	730.0
487	776.0	660.0
488	376.0	810.0
489	703.0	627.0
490	481.0	728.0
491	495.0	862.0
492	192.0	598.0
493	121.0	520.0
494	854.0	951.0
495	305.0	495.0
496	603.0	933.0
497	916.0	240.0
498	889.0	765.0
499	608.0	852.0
500	233.0	438.0
501	715.0	397.0
502	250.0	676.0
503	385.0	490.0
504	911.0	127.0
505	977.0	120.0
506	57.0	831.0
507	695.0	732.0
508	168.0	907.0
509	487.0	552.0
510	379.0	518.0
511	175.0	165.0
512	741.0	69.0
513	859.0	350.0
514	741.0	665.0
515	542.0	145.0
516	65.0	804.0
517	34.0	189.0
518	618.0	340.0
519	87.0	291.0
520	784.0	685.0
521	785.0	260.0
522	943.0	254.0
523	183.0	988.0
524	239.0	180.0
525	206.0	769.0
526	597.0	257.0
527	780.0	886.0
528	981.0	148.0
529	227.0	435.0
530	918.0	839.0
531	905.0	402.0
532	257.0	337.0
533	100.0	996.0
534	194.0	631.0
535	164.0	219.0
536	524.0	887.0
537	909.0	704.0
538	169.0	906.0
539	241.0	785.0
540	937.0	826.0
541	62.0	828.0
542	538.0	74.0
543	399.0	812.0
544	855.0	575.0
545	802.0	150.0
546	451.0	192.0
547	979.0	779.0
548	342.0	445.0
549	692.0	472.0
550	9.0	452.0
551	897.0	431.0
552	665.0	139.0
553	128.0	106.0
554	768.0	689.0
555	150.0	279.0
556	791.0	248.0
557	836.0	385.0
558	235.0	877.0
559	315.0	98.0
560	895.0	755.0
561	363.0	154.0
562	373.0	633.0
563	42.0	430.0
564	850.0	534.0
565	592.0	274.0
566	95.0	712.0
567	565.0	82.0
568	736.0	849.0
569	227.0	124.0
570	770.0	512.0
571	191.0	627.0
572	334.0	855.0
573	307.0	97.0
574	718.0	570.0
575	808.0	903.0
576	630.0	96.0
577	694.0	101.0
578	714.0	65.0
579	380.0	514.0
580	311.0	9.0
581	581.0	60.0
582	483.0	315.0
583	452.0	330.0
584	269.0	422.0
585	986.0	414.0
586	207.0	280.0
587	645.0	986.0
588	97.0	50.0
589	258.0	620.0
590	19.0	60.0
591	159.0	382.0
592	594.0	3.0
593	575.0	648.0
594	505.0	396.0
595	271.0	186.0
596	259.0	278.0
597	440.0	484.0
598	204.0	169.0
599	839.0	329.0
600	796.0	265.0
601	184.0	633.0
602	110.0	901.0
603	794.0	510.0
604	612.0	243.0
605	471.0	610.0
606	168.0	254.0
607	651.0	691.0
608	317.0	884.0
609	788.0	451.0
610	778.0	532.0
611	999.0	602.0
612	223.0	747.0
613	951.0	203.0
614	290.0	179.0
615	5.0	237.0
616	848.0	785.0
617	606.0	434.0
618	511.0	279.0
619	919.0	357.0
620	409.0	840.0
621	726.0	723.0
622	198.0	57.0
623	563.0	987.0
624	330.0	143.0
625	112.0	165.0
626	564.0	379.0
627	841.0	919.0
628	736.0	821.0
629	895.0	875.0
630	772.0	252.0
631	233.0	210.0
632	956.0	386.0
633	29.0	477.0
634	440.0	322.0
635	300.0	683.0
636	19.0	243.0
637	804.0	616.0
638	139.0	376.0
639	177.0	425.0
640	164.0	188.0
641	330.0	450.0
642	894.0	845.0
643	81.0	292.0
644	327.0	908.0
645	52.0	153.0
646	681.0	294.0
647	806.0	403.0
648	650.0	476.0
649	238.0	416.0
650	930.0	935.0
651	220.0	643.0
652	976.0	863.0
653	487.0	945.0
654	23.0	117.0
655	777.0	163.0
656	352.0	425.0
657	224.0	959.0
658	800.0	833.0
659	1.0	880.0
660	530.0	411.0
661	205.0	696.0
662	47.0	211.0
663	1.0	975.0
664	463.0	461.0
665	12.0	909.0
666	9.0	25.0
667	960.0	395.0
668	808.0	103.0
669	555.0	364.0
670	881.0	187.0
671	640.0	356.0
672	423.0	259.0
673	574.0	348.0
674	312.0	251.0
675	881.0	836.0
676	874.0	740.0
677	135.0	158.0
678	904.0	910.0
679	102.0	78.0
680	926.0	747.0
681	133.0	610.0
682	712.0	498.0
683	801.0	94.0
684	46.0	372.0
685	792.0	533.0
686	744.0	492.0
687	49.0	160.0
688	910.0	98.0
689	161.0	275.0
690	462.0	5.0
691	2.0	317.0
692	892.0	299.0
693	623.0	197.0
694	280.0	296.0
695	390.0	873.0
696	569.0	740.0
697	382.0	176.0
698	67.0	260.0
699	22.0	899.0
700	224.0	74.0
701	976.0	106.0
702	643.0	937.0
703	286.0	733.0
704	343.0	347.0
705	768.0	396.0
706	281.0	2.0
707	646.0	481.0
708	113.0	496.0
709	449.0	469.0
710	209.0	276.0
711	146.0	512.0
712	925.0	847.0
713	541.0	265.0
714	108.0	218.0
715	909.0	962.0
716	873.0	616.0
717	891.0	741.0
718	610.0	429.0
719	632.0	229.0
720	254.0	413.0
721	174.0	367.0
722	801.0	148.0
723	94.0	483.0
724	70.0	736.0
725	396.0	630.0
726	722.0	757.0
727	652.0	154.0
728	524.0	473.0
729	390.0	532.0
730	865.0	278.0
731	739.0	441.0
732	522.0	405.0
733	315.0	92.0
734	676.0	875.0
735	367.0	807.0
736	174.0	702.0
737	161.0	844.0
738	52.0	348.0
739	628.0	479.0
740	294.0	425.0
741	245.0	335.0
742	849.0	644.0
743	188.0	955.0
744	898.0	25.0
745	712.0	633.0
746	369.0	346.0
747	795.0	493.0
748	704.0	846.0
749	33.0	817.0
750	872.0	179.0
751	774.0	620.0
752	635.0	620.0
753	512.0	482.0
754	67.0	510.0
755	527.0	626.0
756	316.0	970.0
757	777.0	242.0
758	622.0	844.0
759	35.0	70.0
760	577.0	911.0
761	285.0	224.0
762	652.0	328.0
763	358.0	274.0
764	950.0	346.0
765	824.0	571.0
766	228.0	251.0
767	133.0	826.0
768	166.0	573.0
769	5.0	941.0
770	876.0	539.0
771	74.0	80.0
772	668.0	777.0
773	773.0	7.0
774	71.0	263.0
775	476.0	656.0
776	94.0	533.0
777	895.0	963.0
778	744.0	131.0
779	710.0	940.0
780	790.0	311.0
781	470.0	10.0
782	778.0	994.0
783	726.0	581.0
784	301.0	968.0
785	425.0	873.0
786	510.0	342.0
787	551.0	998.0
788	880.0	251.0
789	13.0	286.0
790	229.0	807.0
791	791.0	870.0
792	980.0	301.0
793	319.0	503.0
794	678.0	661.0
795	131.0	647.0
796	756.0	147.0
797	752.0	792.0
798	552.0	315.0
799	833.0	41.0
800	570.0	210.0
801	550.0	937.0
802	0.0	825.0
803	237.0	533.0
804	484.0	801.0
805	281.0	735.0
806	126.0	383.0
807	261.0	867.0
808	765.0	621.0
809	340.0	504.0
810	483.0	824.0
811	904.0	551.0
812	380.0	261.0
813	450.0	572.0
814	581.0	121.0
815	737.0	364.0
816	504.0	708.0
817	162.0	788.0
818	379.0	894.0
819	415.0	846.0
820	11.0	831.0
821	357.0	10.0
822	794.0	896.0
823	168.0	803.0
824	981.0	897.0
825	740.0	619.0
826	192.0	525.0
827	307.0	810.0
828	193.0	59.0
829	348.0	6.0
830	896.0	319.0
831	718.0	704.0
832	635.0	865.0
833	44.0	81.0
834	677.0	455.0
835	365.0	89.0
836	993.0	748.0
837	21.0	769.0
838	264.0	253.0
839	794.0	836.0
840	158.0	537.0
841	299.0	507.0
842	837.0	673.0
843	625.0	578.0
844	726.0	948.0
845	225.0	753.0
846	529.0	813.0
847	57.0	217.0
848	493.0	88.0
849	977.0	476.0
850	926.0	415.0
851	370.0	421.0
852	960.0	959.0
853	56.0	666.0
854	568.0	361.0
855	418.0	120.0
856	830.0	947.0
857	799.0	823.0
858	447.0	171.0
859	136.0	12.0
860	510.0	332.0
861	864.0	465.0
862	510.0	511.0
863	37.0	62.0
864	610.0	786.0
865	739.0	627.0
866	155.0	680.0
867	710.0	998.0
868	443.0	869.0
869	243.0	357.0
870	736.0	125.0
871	323.0	814.0
872	526.0	532.0
873	20.0	222.0
874	54.0	930.0
875	124.0	270.0
876	76.0	619.0
877	43.0	801.0
878	872.0	318.0
879	938.0	393.0
880	518.0	361.0
881	114.0	189.0
882	398.0	156.0
883	666.0	975.0
884	976.0	884.0
885	362.0	501.0
886	799.0	452.0
887	791.0	71.0
888	778.0	700.0
889	745.0	362.0
890	691.0	851.0
891	870.0	506.0
892	957.0	214.0
893	547.0	416.0
894	645.0	140.0
895	41.0	367.0
896	747.0	223.0
897	884.0	821.0
898	686.0	750.0
899	520.0	508.0
900	86.0	411.0
901	196.0	752.0
902	790.0	247.0
903	100.0	49.0
904	116.0	857.0
905	754.0	899.0
906	387.0	843.0
907	653.0	877.0
908	682.0	525.0
909	156.0	967.0
910	861.0	886.0
911	628.0	139.0
912	829.0	776.0
913	829.0	177.0
914	48.0	367.0
915	553.0	756.0
916	308.0	857.0
917	525.0	768.0
918	739.0	419.0
919	534.0	906.0
920	74.0	407.0
921	829.0	489.0
922	174.0	812.0
923	756.0	539.0
924	783.0	958.0
925	651.0	110.0
926	551.0	459.0
927	980.0	868.0
928	295.0	427.0
929	729.0	915.0
930	518.0	915.0
931	46.0	872.0
932	172.0	627.0
933	130.0	202.0
934	677.0	872.0
935	374.0	795.0
936	181.0	760.0
937	751.0	788.0
938	83.0	664.0
939	459.0	649.0
940	792.0	917.0
941	813.0	502.0
942	746.0	768.0
943	377.0	708.0
944	676.0	582.0
945	367.0	690.0
946	124.0	298.0
947	280.0	13.0
948	209.0	128.0
949	794.0	714.0
950	636.0	512.0
951	901.0	875.0
952	970.0	319.0
953	301.0	452.0
954	146.0	305.0
955	45.0	362.0
956	239.0	811.0
957	423.0	798.0
958	477.0	717.0
959	102.0	815.0
960	504.0	648.0
961	524.0	158.0
962	902.0	424.0
963	538.0	337.0
964	951.0	766.0
965	296.0	959.0
966	647.0	246.0
967	395.0	299.0
968	970.0	492.0
969	260.0	138.0
970	394.0	642.0
971	795.0	836.0
972	657.0	44.0
973	263.0	655.0
974	776.0	212.0
975	436.0	346.0
976	309.0	29.0
977	982.0	977.0
978	879.0	198.0
979	99.0	1000.0
980	927.0	947.0
981	419.0	592.0
982	742.0	981.0
983	138.0	226.0
984	714.0	685.0
985	410.0	503.0
986	858.0	581.0
987	988.0	225.0
988	576.0	24.0
989	114.0	728.0
990	673.0	162.0
991	660.0	459.0
992	624.0	134.0
993	520.0	801.0
994	86.0	528.0
995	245.0	156.0
996	671.0	77.0
997	944.0	270.0
998	951.0	622.0
999	412.0	813.0
1000	732.0	304.0
1001	532.0	201.0
DEMAND_SECTION
1	0
2	6
3	1
4	10
5	7
6	6
7	2
8	8
9	7
10	3
11	5
12	1
13	4
14	10
15	4
16	10
17	3
18	6
19	4
20	3
21	10
22	8
23	6
24	7
25	7
26	4
27	1
28	5
29	3
30	6
31	8
32	5
33	9
34	6
35	9
36	9
37	4
38	1
39	9
40	10
41	2
42	4
43	1
44	10
45	1
46	10
47	2
48	10
49	1
50	4
51	5
52	5
53	6
54	6
55	9
56	4
57	4
58	9
59	3
60	7
61	6
62	8
63	5
64	9
65	3
66	9
67	1
68	1
69	5
70	7
71	6
72	6
73	9
74	3
75	8
76	5
77	9
78	10
79	9
80	5
81	9
82	5
83	10
84	1
85	2
86	9
87	3
88	8
89	2
90	6
91	1
92	3
93	1
94	8
95	8
96	6
97	9
98	5
99	5
100	9
101	1
102	9
103	6
104	3
105	4
106	9
107	7
108	1
109	9
110	6
111	10
112	2
113	3
114	9
115	6
116	4
117	9
118	10
119	3
120	7
121	6
122	6
123	4
124	5
125	9
126	2
127	2
128	4
129	5
130	6
131	1
132	5
133	4
134	3
135	4
136	9
137	4
138	3
139	5
140	10
141	2
142	5
143	8
144	8
145	10
146	7
147	3
148	6
149	9
150	5
151	2
152	10
153	4
154	9
155	2
156	6
157	1
158	6
159	1
160	1
161	7
162	10
163	7
164	3
165	6
166	4
167	4
168	3
169	5
170	4
171	2
172	5
173	1
174	10
175	7
176	3
177	7
178	10
179	10
180	2
181	3
182	10
183	6
184	3
185	1
186	4
187	3
188	10
189	10
190	4
191	8
192	5
193	2
194	8
195	2
196	5
197	8
198	7
199	10
200	1
201	5
202	4
203	7
204	8
205	7
206	8
207	3
208	2
209	9
210	7
211	5
212	3
213	3
214	10
215	8
216	5
217	5
218	3
219	7
220	9
221	5
222	2
223	7
224	3
225	6
226	1
227	6
228	3
229	1
230	8
231	5
232	1
233	9
234	2
235	9
236	3
237	10
238	3
239	8
240	6
241	4
242	9
243	9
244	3
245	10
246	10
247	1
248	4
249	1
250	5
251	2
252	5
253	10
254	6
255	4
256	3
257	6
258	10
259	7
260	2
261	8
262	1
263	5
264	2
265	5
266	9
267	7
268	2
269	4
270	1
271	7
272	10
273	8
274	6
275	10
276	4
277	6
278	6
279	1
280	7
281	7
282	2
283	8
284	2
285	5
286	10
287	1
288	3
289	9
290	3
291	5
292	3
293	9
294	3
295	3
296	2
297	8
298	5
299	10
300	8
301	9
302	7
303	4
304	3
305	8
306	8
307	8
308	8
309	3
310	2
311	10
312	2
313	10
314	3
315	3
316	3
317	3
318	9
319	3
320	1
321	10
322	2
323	9
324	9
325	7
326	8
327	3
328	7
329	6
330	1
331	8
332	3
333	7
334	7
335	2
336	3
337	10
338	7
339	10
340	10
341	2
342	4
343	4
344	7
345	5
346	8
347	7
348	9
349	4
350	10
351	5
352	5
353	7
354	7
355	7
356	4
357	3
358	1
359	9
360	6
361	5
362	6
363	8
364	2
365	10
366	5
367	7
368	7
369	1
370	1
371	7
372	1
373	5
374	8
375	6
376	10
377	9
378	8
379	9
380	5
381	1
382	8
383	9
384	2
385	6
386	8
387	9
388	10
389	8
390	9
391	6
392	7
393	1
394	1
395	2
396	6
397	9
398	8
399	2
400	4
401	7
402	2
403	7
404	4
405	3
406	9
407	1
408	8
409	8
410	4
411	8
412	3
413	5
414	7
415	10
416	1
417	3
418	6
419	5
420	9
421	4
422	6
423	7
424	7
425	1
426	7
427	6
428	8
429	5
430	10
431	1
432	1
433	5
434	9
435	10
436	3
437	8
438	1
439	1
440	10
441	1
442	4
443	3
444	5
445	7
446	4
447	3
448	8
449	6
450	10
451	2
452	5
453	3
454	8
455	6
456	5
457	2
458	3
459	1
460	1
461	1
462	7
463	8
464	7
465	2
466	3
467	4
468	10
469	1
470	1
471	3
472	3
473	2
474	1
475	3
476	5
477	9
478	3
479	10
480	3
481	1
482	2
483	10
484	1
485	6
486	10
487	8
488	8
489	10
490	10
491	6
492	8
493	7
494	4
495	7
496	7
497	4
498	5
499	8
500	7
501	4
502	4
503	8
504	5
505	8
506	4
507	7
508	5
509	3
510	9
511	7
512	2
513	4
514	1
515	8
516	9
517	5
518	7
519	6
520	3
521	1
522	9
523	9
524	2
525	6
526	7
527	2
528	2
529	7
530	4
531	2
532	9
533	9
534	5
535	3
536	4
537	7
538	4
539	4
540	8
541	10
542	9
543	7
544	4
545	2
546	8
547	6
548	2
549	1
550	5
551	5
552	10
553	3
554	9
555	10
556	5
557	9
558	10
559	8
560	8
561	9
562	1
563	5
564	6
565	7
566	9
567	10
568	7
569	4
570	10
571	3
572	7
573	1
574	7
575	5
576	6
577	1
578	3
579	1
580	3
581	6
582	9
583	8
584	5
585	2
586	1
587	7
588	1
589	7
590	9
591	8
592	3
593	5
594	7
595	6
596	3
597	9
598	1
599	3
600	3
601	6
602	3
603	4
604	5
605	9
606	9
607	4
608	6
609	8
610	7
611	4
612	4
613	1
614	4
615	10
616	6
617	5
618	6
619	10
620	2
621	2
622	10
623	7
624	5
625	2
626	1
627	3
628	2
629	8
630	8
631	7
632	9
633	10
634	3
635	5
636	5
637	5
638	10
639	8
640	3
641	10
642	9
643	3
644	9
645	8
646	5
647	5
648	2
649	7
650	3
651	8
652	1
653	6
654	7
655	8
656	2
657	8
658	4
659	7
660	6
661	4
662	3
663	7
664	4
665	2
666	2
667	5
668	9
669	10
670	5
671	2
672	3
673	3
674	10
675	8
676	10
677	9
678	9
679	7
680	9
681	6
682	2
683	1
684	10
685	10
686	6
687	6
688	2
689	8
690	6
691	5
692	8
693	10
694	3
695	5
696	4
697	9
698	8
699	4
700	10
701	6
702	9
703	10
704	4
705	4
706	1
707	7
708	1
709	5
710	10
711	10
712	6
713	8
714	5
715	6
716	3
717	6
718	3
719	5
720	3
721	9
722	8
723	7
724	1
725	6
726	3
727	6
728	8
729	8
730	3
731	10
732	1
733	4
734	9
735	5
736	5
737	9
738	1
739	10
740	3
741	8
742	3
743	7
744	1
745	9
746	2
747	3
748	3
749	5
750	2
751	8
752	1
753	7
754	9
755	2
756	6
757	5
758	9
759	3
760	3
761	4
762	6
763	3
764	4
765	7
766	9
767	3
768	3
769	5
770	1
771	5
772	10
773	8
774	4
775	4
776	2
777	7
778	2
779	1
780	2
781	9
782	9
783	10
784	6
785	10
786	1
787	9
788	8
789	8
790	4
791	2
792	8
793	5
794	8
795	1
796	4
797	5
798	4
799	6
800	7
801	9
802	2
803	1
804	5
805	9
806	8
807	4
808	5
809	8
810	6
811	9
812	3
813	10
814	9
815	5
816	5
817	3
818	3
819	8
820	9
821	7
822	6
823	7
824	10
825	7
826	10
827	4
828	2
829	1
830	10
831	9
832	3
833	6
834	3
835	9
836	10
837	1
838	1
839	1
840	10
841	8
842	5
843	7
844	8
845	8
846	8
847	7
848	5
849	4
850	5
851	7
852	1
853	2
854	9
855	10
856	7
857	6
858	1
859	1
860	1
861	5
862	3
863	5
864	10
865	4
866	5
867	6
868	8
869	6
870	7
871	9
872	3
873	3
874	9
875	2
876	1
877	6
878	10
879	10
880	5
881	8
882	9
883	5
884	9
885	7
886	8
887	6
888	6
889	10
890	2
891	10
892	4
893	10
894	7
895	10
896	5
897	9
898	8
899	2
900	3
901	5
902	3
903	2
904	3
905	2
906	7
907	6
908	5
909	5
910	2
911	8
912	3
913	3
914	4
915	1
916	3
917	1
918	8
919	10
920	6
921	5
922	3
923	2
924	4
925	6
926	8
927	7
928	6
929	7
930	3
931	6
932	6
933	10
934	3
935	5
936	8
937	9
938	1
939	5
940	2
941	7
942	8
943	5
944	5
945	4
946	1
947	5
948	8
949	8
950	6
951	5
952	5
953	7
954	5
955	4
956	4
957	6
958	10
959	10
960	2
961	6
962	10
963	7
964	1
965	3
966	2
967	1
968	5
969	2
970	1
971	10
972	5
973	3
974	4
975	5
976	1
977	9
978	10
979	5
980	6
981	8
982	6
983	6
984	10
985	3
986	8
987	7
988	6
989	1
990	1
991	3
992	9
993	2
994	8
995	4
996	10
997	5
998	7
999	5
1000	2
1001	7
DEPOT_SECTION
1
-1
EOF
